unsat
(define-fun InvF ((x Int) (n Int) (m Int) (z1 Int) (z2 Int) (z3 Int)) Bool (let ((_let_1 (* (- 1) m))) (and (>= m 1) (>= (+ x _let_1) 0) (or (>= (+ n _let_1) 1) (not (>= (+ x (* (- 1) n)) 0)) (not (>= n 2))))))
85.58user 0.05system 1:25.63elapsed 99%CPU (0avgtext+0avgdata 101876maxresident)k
8inputs+8outputs (0major+20087minor)pagefaults 0swaps
